n = 10
Q1 = [0 0 10 0 0 0 0 0 0 15; 0 0 0 0 0 0 43 0 0 36; 0 0 0 0 0 44 0 0 0 0; 0 0 0 0 38 0 11 0 39 15; 0 0 0 0 0 41 0 0 6 0; 0 0 0 0 0 0 0 0 35 0; 0 0 0 0 0 0 0 19 15 26; 0 0 0 0 0 0 0 0 0 16; 0 0 0 0 0 0 0 0 0 0; 0 0 0 0 0 0 0 0 0 0]
Q2 = [0.0 0.0 37.0 0.0 0.0 0.0 0.0 0.0 0.0 35.0; 0.0 0.0 0.0 0.0 0.0 0.0 1.0 0.0 0.0 4.0; 0.0 0.0 0.0 0.0 0.0 0.0 0.0 0.0 0.0 0.0; 0.0 0.0 0.0 0.0 5.0 0.0 44.0 0.0 2.0 32.0; 0.0 0.0 0.0 0.0 0.0 3.0 0.0 0.0 39.0 0.0; 0.0 0.0 0.0 0.0 0.0 0.0 0.0 0.0 7.0 0.0; 0.0 0.0 0.0 0.0 0.0 0.0 0.0 39.0 30.0 5.0; 0.0 0.0 0.0 0.0 0.0 0.0 0.0 0.0 0.0 39.0; 0.0 0.0 0.0 0.0 0.0 0.0 0.0 0.0 0.0 0.0; 0.0 0.0 0.0 0.0 0.0 0.0 0.0 0.0 0.0 0.0]
Q3 = [0 58 3 58 58 58 58 58 58 3; 0 0 58 58 58 58 0 58 58 12; 0 0 0 58 58 5 58 58 58 58; 0 0 0 0 7 58 3 58 0 10; 0 0 0 0 0 5 58 58 7 58; 0 0 0 0 0 0 58 58 4 58; 0 0 0 0 0 0 0 0 5 18; 0 0 0 0 0 0 0 0 58 2; 0 0 0 0 0 0 0 0 0 58; 0 0 0 0 0 0 0 0 0 0]
